SAT
-1 -75 -53 -74 -73 -72 -71 -70 69 64 6 -12 -40 57 61 66 -51 -7 -18 -48 -49 -58 -15 -13 -65 -39 -16 -35 41 -55 10 -52 -19 62 46 60 -63 -28 -37 47 27 -21 -54 -23 38 68 -22 42 -67 -32 -20 4 34 59 17 31 -44 -11 -33 56 -45 -50 2 36 -14 26 29 3 -43 5 25 9 -30 -8 -24 0
